data/lp_files/q3/64_5.lp
\ Model foo
\ LP format - for model browsing. Use MPS format to capture full model detail.
Minimize
  z
Subject To
 allocateEach[1]: x[1,1] + x[2,1] + x[3,1] + x[4,1] = 1
 allocateEach[2]: x[1,2] + x[2,2] + x[3,2] + x[4,2] = 1
 allocateEach[3]: x[1,3] + x[2,3] + x[3,3] + x[4,3] = 1
 allocateEach[4]: x[1,4] + x[2,4] + x[3,4] + x[4,4] = 1
 allocateAllCash: cashProportion[1] + cashProportion[2] + cashProportion[3]
   + cashProportion[4] = 1
 findWorstP[1,2]: z + 0.1198944928462952 cashProportion[1]
   - 0.1198944928462952 cashProportion[2] + 0.3321876748461354 x[1,1]
   + 0.2894652705619055 x[1,2] + 0.1802014227479818 x[1,3]
   + 0.078251138997682 x[1,4] - 0.3321876748461354 x[2,1]
   - 0.2894652705619055 x[2,2] - 0.1802014227479818 x[2,3]
   - 0.078251138997682 x[2,4] >= 0
 findWorstP[1,3]: z + 0.1198944928462952 cashProportion[1]
   - 0.1198944928462952 cashProportion[3] + 0.3321876748461354 x[1,1]
   + 0.2894652705619055 x[1,2] + 0.1802014227479818 x[1,3]
   + 0.078251138997682 x[1,4] - 0.3321876748461354 x[3,1]
   - 0.2894652705619055 x[3,2] - 0.1802014227479818 x[3,3]
   - 0.078251138997682 x[3,4] >= 0
 findWorstP[1,4]: z + 0.1198944928462952 cashProportion[1]
   - 0.1198944928462952 cashProportion[4] + 0.3321876748461354 x[1,1]
   + 0.2894652705619055 x[1,2] + 0.1802014227479818 x[1,3]
   + 0.078251138997682 x[1,4] - 0.3321876748461354 x[4,1]
   - 0.2894652705619055 x[4,2] - 0.1802014227479818 x[4,3]
   - 0.078251138997682 x[4,4] >= 0
 findWorstP[2,1]: z - 0.1778199276865628 cashProportion[1]
   + 0.1778199276865628 cashProportion[2] - 0.1548811570149962 x[1,1]
   - 0.1999288720289254 x[1,2] - 0.3353091103076285 x[1,3]
   - 0.1320609329618873 x[1,4] + 0.1548811570149962 x[2,1]
   + 0.1999288720289254 x[2,2] + 0.3353091103076285 x[2,3]
   + 0.1320609329618873 x[2,4] >= 0
 findWorstP[2,3]: z + 0.1778199276865628 cashProportion[2]
   - 0.1778199276865628 cashProportion[3] + 0.1548811570149962 x[2,1]
   + 0.1999288720289254 x[2,2] + 0.3353091103076285 x[2,3]
   + 0.1320609329618873 x[2,4] - 0.1548811570149962 x[3,1]
   - 0.1999288720289254 x[3,2] - 0.3353091103076285 x[3,3]
   - 0.1320609329618873 x[3,4] >= 0
 findWorstP[2,4]: z + 0.1778199276865628 cashProportion[2]
   - 0.1778199276865628 cashProportion[4] + 0.1548811570149962 x[2,1]
   + 0.1999288720289254 x[2,2] + 0.3353091103076285 x[2,3]
   + 0.1320609329618873 x[2,4] - 0.1548811570149962 x[4,1]
   - 0.1999288720289254 x[4,2] - 0.3353091103076285 x[4,3]
   - 0.1320609329618873 x[4,4] >= 0
 findWorstP[3,1]: z - 0.2212715739784629 cashProportion[1]
   + 0.2212715739784629 cashProportion[3] - 0.0166691252397109 x[1,1]
   - 0.0561292225992034 x[1,2] - 0.3945272164035993 x[1,3]
   - 0.3114028617790234 x[1,4] + 0.0166691252397109 x[3,1]
   + 0.0561292225992034 x[3,2] + 0.3945272164035993 x[3,3]
   + 0.3114028617790234 x[3,4] >= 0
 findWorstP[3,2]: z - 0.2212715739784629 cashProportion[2]
   + 0.2212715739784629 cashProportion[3] - 0.0166691252397109 x[2,1]
   - 0.0561292225992034 x[2,2] - 0.3945272164035993 x[2,3]
   - 0.3114028617790234 x[2,4] + 0.0166691252397109 x[3,1]
   + 0.0561292225992034 x[3,2] + 0.3945272164035993 x[3,3]
   + 0.3114028617790234 x[3,4] >= 0
 findWorstP[3,4]: z + 0.2212715739784629 cashProportion[3]
   - 0.2212715739784629 cashProportion[4] + 0.0166691252397109 x[3,1]
   + 0.0561292225992034 x[3,2] + 0.3945272164035993 x[3,3]
   + 0.3114028617790234 x[3,4] - 0.0166691252397109 x[4,1]
   - 0.0561292225992034 x[4,2] - 0.3945272164035993 x[4,3]
   - 0.3114028617790234 x[4,4] >= 0
 findWorstP[4,1]: z - 0.0927271041325379 cashProportion[1]
   + 0.0927271041325379 cashProportion[4] - 0.3067103514357246 x[1,1]
   - 0.040336290297654 x[1,2] - 0.2811176706951442 x[1,3]
   - 0.2791085834389392 x[1,4] + 0.3067103514357246 x[4,1]
   + 0.040336290297654 x[4,2] + 0.2811176706951442 x[4,3]
   + 0.2791085834389392 x[4,4] >= 0
 findWorstP[4,2]: z - 0.0927271041325379 cashProportion[2]
   + 0.0927271041325379 cashProportion[4] - 0.3067103514357246 x[2,1]
   - 0.040336290297654 x[2,2] - 0.2811176706951442 x[2,3]
   - 0.2791085834389392 x[2,4] + 0.3067103514357246 x[4,1]
   + 0.040336290297654 x[4,2] + 0.2811176706951442 x[4,3]
   + 0.2791085834389392 x[4,4] >= 0
 findWorstP[4,3]: z - 0.0927271041325379 cashProportion[3]
   + 0.0927271041325379 cashProportion[4] - 0.3067103514357246 x[3,1]
   - 0.040336290297654 x[3,2] - 0.2811176706951442 x[3,3]
   - 0.2791085834389392 x[3,4] + 0.3067103514357246 x[4,1]
   + 0.040336290297654 x[4,2] + 0.2811176706951442 x[4,3]
   + 0.2791085834389392 x[4,4] >= 0
Bounds
 z <= 1
 -infinity <= cashProportion[1] <= 1
 -infinity <= cashProportion[2] <= 1
 -infinity <= cashProportion[3] <= 1
 -infinity <= cashProportion[4] <= 1
Binaries
 x[1,1] x[1,2] x[1,3] x[1,4] x[2,1] x[2,2] x[2,3] x[2,4] x[3,1] x[3,2]
 x[3,3] x[3,4] x[4,1] x[4,2] x[4,3] x[4,4]
End
